65535
194559
228351
243711
253951
262079
311295
358399
392191
407551
417791
441343
458239
458750
475071
491391
491503
499711
507902
520191
521215
522175
524031
557055
638975
653311
654335
702463
712703
719871
720831
735231
745471
761855
769023
769983
782335
783359
784319
785919
786175
786303
786415
786430
849919
850943
883711
899071
900095
909311
913407
914431
916991
917247
917375
917439
917487
917502
932863
949759
958463
966591
966654
978943
979967
980927
982783
982911
983023
999422
1013695
1015551
1028095
1029119
1030079
1031679
1031935
1032063
1032175
1036287
1038335
1039359
1039871
1040127
1040255
1040319
1040367
1040382
1042431
1043455
1043967
1044223
1044351
1044415
1044463
1044478
1046015
1046271
1046399
1046511
1046526
1047039
1047295
1047423
1047487
1047535
1047550
1047807
1047935
1047999
1048047
1048062
1048191
1048255
1048303
1048318
1048383
1048431
1048446
1048495
1048510
1048543
1048558
1048567
1048571
1048573
